c File: flat150_3_0.col
c
c SOURCE: Joseph Culberson (joe@cs.ualberta.ca)
c DESCRIPTION: Quasi-random coloring problem
c              generated with flatness = 0
c                             probability = 0.048
c                             known coloring = 3
c                             random seed = 1059
c              Creation Date:  Wed Feb 24 10:37:37 1999
c Maximum degree = 8 Minimum degree = 0
c COLOR VERIFICATION: Using the permuted order
c under simple greedy yields the specified
c coloring number
c Color = 3 specified partitions = 3
c p edge 150 360
c cnf created by edge2cnf
p cnf 450 1680
-1 -2 0
-1 -3 0
-2 -3 0
1 2 3 0
-4 -5 0
-4 -6 0
-5 -6 0
4 5 6 0
-7 -8 0
-7 -9 0
-8 -9 0
7 8 9 0
-10 -11 0
-10 -12 0
-11 -12 0
10 11 12 0
-13 -14 0
-13 -15 0
-14 -15 0
13 14 15 0
-16 -17 0
-16 -18 0
-17 -18 0
16 17 18 0
-19 -20 0
-19 -21 0
-20 -21 0
19 20 21 0
-22 -23 0
-22 -24 0
-23 -24 0
22 23 24 0
-25 -26 0
-25 -27 0
-26 -27 0
25 26 27 0
-28 -29 0
-28 -30 0
-29 -30 0
28 29 30 0
-31 -32 0
-31 -33 0
-32 -33 0
31 32 33 0
-34 -35 0
-34 -36 0
-35 -36 0
34 35 36 0
-37 -38 0
-37 -39 0
-38 -39 0
37 38 39 0
-40 -41 0
-40 -42 0
-41 -42 0
40 41 42 0
-43 -44 0
-43 -45 0
-44 -45 0
43 44 45 0
-46 -47 0
-46 -48 0
-47 -48 0
46 47 48 0
-49 -50 0
-49 -51 0
-50 -51 0
49 50 51 0
-52 -53 0
-52 -54 0
-53 -54 0
52 53 54 0
-55 -56 0
-55 -57 0
-56 -57 0
55 56 57 0
-58 -59 0
-58 -60 0
-59 -60 0
58 59 60 0
-61 -62 0
-61 -63 0
-62 -63 0
61 62 63 0
-64 -65 0
-64 -66 0
-65 -66 0
64 65 66 0
-67 -68 0
-67 -69 0
-68 -69 0
67 68 69 0
-70 -71 0
-70 -72 0
-71 -72 0
70 71 72 0
-73 -74 0
-73 -75 0
-74 -75 0
73 74 75 0
-76 -77 0
-76 -78 0
-77 -78 0
76 77 78 0
-79 -80 0
-79 -81 0
-80 -81 0
79 80 81 0
-82 -83 0
-82 -84 0
-83 -84 0
82 83 84 0
-85 -86 0
-85 -87 0
-86 -87 0
85 86 87 0
-88 -89 0
-88 -90 0
-89 -90 0
88 89 90 0
-91 -92 0
-91 -93 0
-92 -93 0
91 92 93 0
-94 -95 0
-94 -96 0
-95 -96 0
94 95 96 0
-97 -98 0
-97 -99 0
-98 -99 0
97 98 99 0
-100 -101 0
-100 -102 0
-101 -102 0
100 101 102 0
-103 -104 0
-103 -105 0
-104 -105 0
103 104 105 0
-106 -107 0
-106 -108 0
-107 -108 0
106 107 108 0
-109 -110 0
-109 -111 0
-110 -111 0
109 110 111 0
-112 -113 0
-112 -114 0
-113 -114 0
112 113 114 0
-115 -116 0
-115 -117 0
-116 -117 0
115 116 117 0
-118 -119 0
-118 -120 0
-119 -120 0
118 119 120 0
-121 -122 0
-121 -123 0
-122 -123 0
121 122 123 0
-124 -125 0
-124 -126 0
-125 -126 0
124 125 126 0
-127 -128 0
-127 -129 0
-128 -129 0
127 128 129 0
-130 -131 0
-130 -132 0
-131 -132 0
130 131 132 0
-133 -134 0
-133 -135 0
-134 -135 0
133 134 135 0
-136 -137 0
-136 -138 0
-137 -138 0
136 137 138 0
-139 -140 0
-139 -141 0
-140 -141 0
139 140 141 0
-142 -143 0
-142 -144 0
-143 -144 0
142 143 144 0
-145 -146 0
-145 -147 0
-146 -147 0
145 146 147 0
-148 -149 0
-148 -150 0
-149 -150 0
148 149 150 0
-151 -152 0
-151 -153 0
-152 -153 0
151 152 153 0
-154 -155 0
-154 -156 0
-155 -156 0
154 155 156 0
-157 -158 0
-157 -159 0
-158 -159 0
157 158 159 0
-160 -161 0
-160 -162 0
-161 -162 0
160 161 162 0
-163 -164 0
-163 -165 0
-164 -165 0
163 164 165 0
-166 -167 0
-166 -168 0
-167 -168 0
166 167 168 0
-169 -170 0
-169 -171 0
-170 -171 0
169 170 171 0
-172 -173 0
-172 -174 0
-173 -174 0
172 173 174 0
-175 -176 0
-175 -177 0
-176 -177 0
175 176 177 0
-178 -179 0
-178 -180 0
-179 -180 0
178 179 180 0
-181 -182 0
-181 -183 0
-182 -183 0
181 182 183 0
-184 -185 0
-184 -186 0
-185 -186 0
184 185 186 0
-187 -188 0
-187 -189 0
-188 -189 0
187 188 189 0
-190 -191 0
-190 -192 0
-191 -192 0
190 191 192 0
-193 -194 0
-193 -195 0
-194 -195 0
193 194 195 0
-196 -197 0
-196 -198 0
-197 -198 0
196 197 198 0
-199 -200 0
-199 -201 0
-200 -201 0
199 200 201 0
-202 -203 0
-202 -204 0
-203 -204 0
202 203 204 0
-205 -206 0
-205 -207 0
-206 -207 0
205 206 207 0
-208 -209 0
-208 -210 0
-209 -210 0
208 209 210 0
-211 -212 0
-211 -213 0
-212 -213 0
211 212 213 0
-214 -215 0
-214 -216 0
-215 -216 0
214 215 216 0
-217 -218 0
-217 -219 0
-218 -219 0
217 218 219 0
-220 -221 0
-220 -222 0
-221 -222 0
220 221 222 0
-223 -224 0
-223 -225 0
-224 -225 0
223 224 225 0
-226 -227 0
-226 -228 0
-227 -228 0
226 227 228 0
-229 -230 0
-229 -231 0
-230 -231 0
229 230 231 0
-232 -233 0
-232 -234 0
-233 -234 0
232 233 234 0
-235 -236 0
-235 -237 0
-236 -237 0
235 236 237 0
-238 -239 0
-238 -240 0
-239 -240 0
238 239 240 0
-241 -242 0
-241 -243 0
-242 -243 0
241 242 243 0
-244 -245 0
-244 -246 0
-245 -246 0
244 245 246 0
-247 -248 0
-247 -249 0
-248 -249 0
247 248 249 0
-250 -251 0
-250 -252 0
-251 -252 0
250 251 252 0
-253 -254 0
-253 -255 0
-254 -255 0
253 254 255 0
-256 -257 0
-256 -258 0
-257 -258 0
256 257 258 0
-259 -260 0
-259 -261 0
-260 -261 0
259 260 261 0
-262 -263 0
-262 -264 0
-263 -264 0
262 263 264 0
-265 -266 0
-265 -267 0
-266 -267 0
265 266 267 0
-268 -269 0
-268 -270 0
-269 -270 0
268 269 270 0
-271 -272 0
-271 -273 0
-272 -273 0
271 272 273 0
-274 -275 0
-274 -276 0
-275 -276 0
274 275 276 0
-277 -278 0
-277 -279 0
-278 -279 0
277 278 279 0
-280 -281 0
-280 -282 0
-281 -282 0
280 281 282 0
-283 -284 0
-283 -285 0
-284 -285 0
283 284 285 0
-286 -287 0
-286 -288 0
-287 -288 0
286 287 288 0
-289 -290 0
-289 -291 0
-290 -291 0
289 290 291 0
-292 -293 0
-292 -294 0
-293 -294 0
292 293 294 0
-295 -296 0
-295 -297 0
-296 -297 0
295 296 297 0
-298 -299 0
-298 -300 0
-299 -300 0
298 299 300 0
-301 -302 0
-301 -303 0
-302 -303 0
301 302 303 0
-304 -305 0
-304 -306 0
-305 -306 0
304 305 306 0
-307 -308 0
-307 -309 0
-308 -309 0
307 308 309 0
-310 -311 0
-310 -312 0
-311 -312 0
310 311 312 0
-313 -314 0
-313 -315 0
-314 -315 0
313 314 315 0
-316 -317 0
-316 -318 0
-317 -318 0
316 317 318 0
-319 -320 0
-319 -321 0
-320 -321 0
319 320 321 0
-322 -323 0
-322 -324 0
-323 -324 0
322 323 324 0
-325 -326 0
-325 -327 0
-326 -327 0
325 326 327 0
-328 -329 0
-328 -330 0
-329 -330 0
328 329 330 0
-331 -332 0
-331 -333 0
-332 -333 0
331 332 333 0
-334 -335 0
-334 -336 0
-335 -336 0
334 335 336 0
-337 -338 0
-337 -339 0
-338 -339 0
337 338 339 0
-340 -341 0
-340 -342 0
-341 -342 0
340 341 342 0
-343 -344 0
-343 -345 0
-344 -345 0
343 344 345 0
-346 -347 0
-346 -348 0
-347 -348 0
346 347 348 0
-349 -350 0
-349 -351 0
-350 -351 0
349 350 351 0
-352 -353 0
-352 -354 0
-353 -354 0
352 353 354 0
-355 -356 0
-355 -357 0
-356 -357 0
355 356 357 0
-358 -359 0
-358 -360 0
-359 -360 0
358 359 360 0
-361 -362 0
-361 -363 0
-362 -363 0
361 362 363 0
-364 -365 0
-364 -366 0
-365 -366 0
364 365 366 0
-367 -368 0
-367 -369 0
-368 -369 0
367 368 369 0
-370 -371 0
-370 -372 0
-371 -372 0
370 371 372 0
-373 -374 0
-373 -375 0
-374 -375 0
373 374 375 0
-376 -377 0
-376 -378 0
-377 -378 0
376 377 378 0
-379 -380 0
-379 -381 0
-380 -381 0
379 380 381 0
-382 -383 0
-382 -384 0
-383 -384 0
382 383 384 0
-385 -386 0
-385 -387 0
-386 -387 0
385 386 387 0
-388 -389 0
-388 -390 0
-389 -390 0
388 389 390 0
-391 -392 0
-391 -393 0
-392 -393 0
391 392 393 0
-394 -395 0
-394 -396 0
-395 -396 0
394 395 396 0
-397 -398 0
-397 -399 0
-398 -399 0
397 398 399 0
-400 -401 0
-400 -402 0
-401 -402 0
400 401 402 0
-403 -404 0
-403 -405 0
-404 -405 0
403 404 405 0
-406 -407 0
-406 -408 0
-407 -408 0
406 407 408 0
-409 -410 0
-409 -411 0
-410 -411 0
409 410 411 0
-412 -413 0
-412 -414 0
-413 -414 0
412 413 414 0
-415 -416 0
-415 -417 0
-416 -417 0
415 416 417 0
-418 -419 0
-418 -420 0
-419 -420 0
418 419 420 0
-421 -422 0
-421 -423 0
-422 -423 0
421 422 423 0
-424 -425 0
-424 -426 0
-425 -426 0
424 425 426 0
-427 -428 0
-427 -429 0
-428 -429 0
427 428 429 0
-430 -431 0
-430 -432 0
-431 -432 0
430 431 432 0
-433 -434 0
-433 -435 0
-434 -435 0
433 434 435 0
-436 -437 0
-436 -438 0
-437 -438 0
436 437 438 0
-439 -440 0
-439 -441 0
-440 -441 0
439 440 441 0
-442 -443 0
-442 -444 0
-443 -444 0
442 443 444 0
-445 -446 0
-445 -447 0
-446 -447 0
445 446 447 0
-448 -449 0
-448 -450 0
-449 -450 0
448 449 450 0
-106 -1 0
-107 -2 0
-108 -3 0
-139 -1 0
-140 -2 0
-141 -3 0
-148 -1 0
-149 -2 0
-150 -3 0
-196 -1 0
-197 -2 0
-198 -3 0
-199 -1 0
-200 -2 0
-201 -3 0
-214 -1 0
-215 -2 0
-216 -3 0
-10 -4 0
-11 -5 0
-12 -6 0
-100 -4 0
-101 -5 0
-102 -6 0
-196 -4 0
-197 -5 0
-198 -6 0
-316 -4 0
-317 -5 0
-318 -6 0
-349 -4 0
-350 -5 0
-351 -6 0
-157 -7 0
-158 -8 0
-159 -9 0
-169 -7 0
-170 -8 0
-171 -9 0
-253 -7 0
-254 -8 0
-255 -9 0
-289 -7 0
-290 -8 0
-291 -9 0
-391 -7 0
-392 -8 0
-393 -9 0
-397 -7 0
-398 -8 0
-399 -9 0
-82 -10 0
-83 -11 0
-84 -12 0
-100 -10 0
-101 -11 0
-102 -12 0
-181 -10 0
-182 -11 0
-183 -12 0
-229 -10 0
-230 -11 0
-231 -12 0
-316 -10 0
-317 -11 0
-318 -12 0
-52 -13 0
-53 -14 0
-54 -15 0
-214 -13 0
-215 -14 0
-216 -15 0
-370 -13 0
-371 -14 0
-372 -15 0
-115 -16 0
-116 -17 0
-117 -18 0
-172 -16 0
-173 -17 0
-174 -18 0
-415 -16 0
-416 -17 0
-417 -18 0
-151 -19 0
-152 -20 0
-153 -21 0
-208 -19 0
-209 -20 0
-210 -21 0
-328 -19 0
-329 -20 0
-330 -21 0
-385 -19 0
-386 -20 0
-387 -21 0
-427 -19 0
-428 -20 0
-429 -21 0
-421 -22 0
-422 -23 0
-423 -24 0
-157 -25 0
-158 -26 0
-159 -27 0
-199 -25 0
-200 -26 0
-201 -27 0
-304 -25 0
-305 -26 0
-306 -27 0
-316 -25 0
-317 -26 0
-318 -27 0
-361 -25 0
-362 -26 0
-363 -27 0
-403 -25 0
-404 -26 0
-405 -27 0
-76 -28 0
-77 -29 0
-78 -30 0
-88 -28 0
-89 -29 0
-90 -30 0
-142 -28 0
-143 -29 0
-144 -30 0
-163 -28 0
-164 -29 0
-165 -30 0
-241 -28 0
-242 -29 0
-243 -30 0
-391 -28 0
-392 -29 0
-393 -30 0
-442 -28 0
-443 -29 0
-444 -30 0
-64 -31 0
-65 -32 0
-66 -33 0
-127 -31 0
-128 -32 0
-129 -33 0
-154 -31 0
-155 -32 0
-156 -33 0
-190 -31 0
-191 -32 0
-192 -33 0
-412 -31 0
-413 -32 0
-414 -33 0
-427 -31 0
-428 -32 0
-429 -33 0
-445 -31 0
-446 -32 0
-447 -33 0
-55 -34 0
-56 -35 0
-57 -36 0
-118 -34 0
-119 -35 0
-120 -36 0
-124 -34 0
-125 -35 0
-126 -36 0
-136 -34 0
-137 -35 0
-138 -36 0
-205 -34 0
-206 -35 0
-207 -36 0
-280 -34 0
-281 -35 0
-282 -36 0
-430 -34 0
-431 -35 0
-432 -36 0
-103 -37 0
-104 -38 0
-105 -39 0
-181 -37 0
-182 -38 0
-183 -39 0
-205 -37 0
-206 -38 0
-207 -39 0
-211 -37 0
-212 -38 0
-213 -39 0
-229 -37 0
-230 -38 0
-231 -39 0
-136 -40 0
-137 -41 0
-138 -42 0
-310 -40 0
-311 -41 0
-312 -42 0
-343 -40 0
-344 -41 0
-345 -42 0
-91 -43 0
-92 -44 0
-93 -45 0
-106 -43 0
-107 -44 0
-108 -45 0
-127 -43 0
-128 -44 0
-129 -45 0
-163 -46 0
-164 -47 0
-165 -48 0
-199 -46 0
-200 -47 0
-201 -48 0
-391 -46 0
-392 -47 0
-393 -48 0
-430 -46 0
-431 -47 0
-432 -48 0
-103 -52 0
-104 -53 0
-105 -54 0
-112 -52 0
-113 -53 0
-114 -54 0
-346 -52 0
-347 -53 0
-348 -54 0
-403 -52 0
-404 -53 0
-405 -54 0
-406 -52 0
-407 -53 0
-408 -54 0
-253 -55 0
-254 -56 0
-255 -57 0
-277 -55 0
-278 -56 0
-279 -57 0
-319 -55 0
-320 -56 0
-321 -57 0
-343 -55 0
-344 -56 0
-345 -57 0
-355 -55 0
-356 -56 0
-357 -57 0
-364 -55 0
-365 -56 0
-366 -57 0
-442 -55 0
-443 -56 0
-444 -57 0
-247 -58 0
-248 -59 0
-249 -60 0
-76 -61 0
-77 -62 0
-78 -63 0
-364 -61 0
-365 -62 0
-366 -63 0
-85 -64 0
-86 -65 0
-87 -66 0
-193 -64 0
-194 -65 0
-195 -66 0
-382 -64 0
-383 -65 0
-384 -66 0
-400 -64 0
-401 -65 0
-402 -66 0
-421 -64 0
-422 -65 0
-423 -66 0
-106 -67 0
-107 -68 0
-108 -69 0
-205 -67 0
-206 -68 0
-207 -69 0
-250 -67 0
-251 -68 0
-252 -69 0
-280 -67 0
-281 -68 0
-282 -69 0
-319 -67 0
-320 -68 0
-321 -69 0
-322 -67 0
-323 -68 0
-324 -69 0
-403 -67 0
-404 -68 0
-405 -69 0
-148 -70 0
-149 -71 0
-150 -72 0
-175 -70 0
-176 -71 0
-177 -72 0
-190 -70 0
-191 -71 0
-192 -72 0
-223 -70 0
-224 -71 0
-225 -72 0
-229 -70 0
-230 -71 0
-231 -72 0
-226 -73 0
-227 -74 0
-228 -75 0
-301 -73 0
-302 -74 0
-303 -75 0
-79 -76 0
-80 -77 0
-81 -78 0
-139 -76 0
-140 -77 0
-141 -78 0
-223 -76 0
-224 -77 0
-225 -78 0
-304 -76 0
-305 -77 0
-306 -78 0
-418 -76 0
-419 -77 0
-420 -78 0
-91 -79 0
-92 -80 0
-93 -81 0
-103 -79 0
-104 -80 0
-105 -81 0
-229 -79 0
-230 -80 0
-231 -81 0
-364 -79 0
-365 -80 0
-366 -81 0
-436 -79 0
-437 -80 0
-438 -81 0
-127 -82 0
-128 -83 0
-129 -84 0
-145 -82 0
-146 -83 0
-147 -84 0
-244 -82 0
-245 -83 0
-246 -84 0
-364 -82 0
-365 -83 0
-366 -84 0
-100 -85 0
-101 -86 0
-102 -87 0
-136 -85 0
-137 -86 0
-138 -87 0
-184 -85 0
-185 -86 0
-186 -87 0
-226 -85 0
-227 -86 0
-228 -87 0
-316 -85 0
-317 -86 0
-318 -87 0
-379 -85 0
-380 -86 0
-381 -87 0
-418 -85 0
-419 -86 0
-420 -87 0
-172 -88 0
-173 -89 0
-174 -90 0
-196 -88 0
-197 -89 0
-198 -90 0
-235 -88 0
-236 -89 0
-237 -90 0
-238 -88 0
-239 -89 0
-240 -90 0
-349 -88 0
-350 -89 0
-351 -90 0
-157 -91 0
-158 -92 0
-159 -93 0
-196 -91 0
-197 -92 0
-198 -93 0
-214 -91 0
-215 -92 0
-216 -93 0
-322 -91 0
-323 -92 0
-324 -93 0
-331 -91 0
-332 -92 0
-333 -93 0
-358 -91 0
-359 -92 0
-360 -93 0
-109 -94 0
-110 -95 0
-111 -96 0
-271 -94 0
-272 -95 0
-273 -96 0
-358 -94 0
-359 -95 0
-360 -96 0
-388 -94 0
-389 -95 0
-390 -96 0
-157 -97 0
-158 -98 0
-159 -99 0
-205 -97 0
-206 -98 0
-207 -99 0
-226 -97 0
-227 -98 0
-228 -99 0
-271 -97 0
-272 -98 0
-273 -99 0
-373 -97 0
-374 -98 0
-375 -99 0
-427 -97 0
-428 -98 0
-429 -99 0
-286 -100 0
-287 -101 0
-288 -102 0
-373 -100 0
-374 -101 0
-375 -102 0
-412 -103 0
-413 -104 0
-414 -105 0
-130 -106 0
-131 -107 0
-132 -108 0
-226 -106 0
-227 -107 0
-228 -108 0
-199 -109 0
-200 -110 0
-201 -111 0
-211 -109 0
-212 -110 0
-213 -111 0
-256 -109 0
-257 -110 0
-258 -111 0
-331 -109 0
-332 -110 0
-333 -111 0
-343 -109 0
-344 -110 0
-345 -111 0
-361 -109 0
-362 -110 0
-363 -111 0
-199 -112 0
-200 -113 0
-201 -114 0
-226 -112 0
-227 -113 0
-228 -114 0
-382 -112 0
-383 -113 0
-384 -114 0
-133 -115 0
-134 -116 0
-135 -117 0
-226 -115 0
-227 -116 0
-228 -117 0
-274 -115 0
-275 -116 0
-276 -117 0
-322 -115 0
-323 -116 0
-324 -117 0
-361 -115 0
-362 -116 0
-363 -117 0
-406 -115 0
-407 -116 0
-408 -117 0
-430 -115 0
-431 -116 0
-432 -117 0
-151 -118 0
-152 -119 0
-153 -120 0
-313 -118 0
-314 -119 0
-315 -120 0
-343 -118 0
-344 -119 0
-345 -120 0
-133 -121 0
-134 -122 0
-135 -123 0
-172 -121 0
-173 -122 0
-174 -123 0
-217 -121 0
-218 -122 0
-219 -123 0
-292 -121 0
-293 -122 0
-294 -123 0
-427 -121 0
-428 -122 0
-429 -123 0
-163 -124 0
-164 -125 0
-165 -126 0
-169 -124 0
-170 -125 0
-171 -126 0
-202 -124 0
-203 -125 0
-204 -126 0
-313 -124 0
-314 -125 0
-315 -126 0
-382 -124 0
-383 -125 0
-384 -126 0
-433 -124 0
-434 -125 0
-435 -126 0
-145 -127 0
-146 -128 0
-147 -129 0
-277 -127 0
-278 -128 0
-279 -129 0
-310 -127 0
-311 -128 0
-312 -129 0
-274 -130 0
-275 -131 0
-276 -132 0
-322 -130 0
-323 -131 0
-324 -132 0
-400 -133 0
-401 -134 0
-402 -135 0
-217 -136 0
-218 -137 0
-219 -138 0
-355 -136 0
-356 -137 0
-357 -138 0
-268 -139 0
-269 -140 0
-270 -141 0
-325 -139 0
-326 -140 0
-327 -141 0
-211 -142 0
-212 -143 0
-213 -144 0
-448 -142 0
-449 -143 0
-450 -144 0
-175 -145 0
-176 -146 0
-177 -147 0
-184 -145 0
-185 -146 0
-186 -147 0
-193 -145 0
-194 -146 0
-195 -147 0
-259 -145 0
-260 -146 0
-261 -147 0
-418 -145 0
-419 -146 0
-420 -147 0
-277 -151 0
-278 -152 0
-279 -153 0
-283 -151 0
-284 -152 0
-285 -153 0
-286 -151 0
-287 -152 0
-288 -153 0
-331 -151 0
-332 -152 0
-333 -153 0
-385 -151 0
-386 -152 0
-387 -153 0
-388 -151 0
-389 -152 0
-390 -153 0
-241 -154 0
-242 -155 0
-243 -156 0
-352 -154 0
-353 -155 0
-354 -156 0
-436 -154 0
-437 -155 0
-438 -156 0
-256 -157 0
-257 -158 0
-258 -159 0
-346 -157 0
-347 -158 0
-348 -159 0
-289 -160 0
-290 -161 0
-291 -162 0
-340 -160 0
-341 -161 0
-342 -162 0
-349 -160 0
-350 -161 0
-351 -162 0
-421 -160 0
-422 -161 0
-423 -162 0
-238 -163 0
-239 -164 0
-240 -165 0
-262 -163 0
-263 -164 0
-264 -165 0
-376 -163 0
-377 -164 0
-378 -165 0
-247 -166 0
-248 -167 0
-249 -168 0
-322 -166 0
-323 -167 0
-324 -168 0
-331 -166 0
-332 -167 0
-333 -168 0
-172 -169 0
-173 -170 0
-174 -171 0
-247 -169 0
-248 -170 0
-249 -171 0
-268 -169 0
-269 -170 0
-270 -171 0
-340 -169 0
-341 -170 0
-342 -171 0
-364 -169 0
-365 -170 0
-366 -171 0
-211 -172 0
-212 -173 0
-213 -174 0
-283 -175 0
-284 -176 0
-285 -177 0
-301 -175 0
-302 -176 0
-303 -177 0
-313 -175 0
-314 -176 0
-315 -177 0
-337 -175 0
-338 -176 0
-339 -177 0
-283 -178 0
-284 -179 0
-285 -180 0
-394 -178 0
-395 -179 0
-396 -180 0
-427 -178 0
-428 -179 0
-429 -180 0
-439 -178 0
-440 -179 0
-441 -180 0
-259 -181 0
-260 -182 0
-261 -183 0
-373 -181 0
-374 -182 0
-375 -183 0
-448 -181 0
-449 -182 0
-450 -183 0
-223 -184 0
-224 -185 0
-225 -186 0
-190 -187 0
-191 -188 0
-192 -189 0
-214 -187 0
-215 -188 0
-216 -189 0
-259 -187 0
-260 -188 0
-261 -189 0
-274 -187 0
-275 -188 0
-276 -189 0
-337 -187 0
-338 -188 0
-339 -189 0
-334 -190 0
-335 -191 0
-336 -192 0
-424 -190 0
-425 -191 0
-426 -192 0
-286 -193 0
-287 -194 0
-288 -195 0
-445 -193 0
-446 -194 0
-447 -195 0
-277 -196 0
-278 -197 0
-279 -198 0
-301 -196 0
-302 -197 0
-303 -198 0
-397 -196 0
-398 -197 0
-399 -198 0
-208 -202 0
-209 -203 0
-210 -204 0
-274 -202 0
-275 -203 0
-276 -204 0
-394 -202 0
-395 -203 0
-396 -204 0
-286 -205 0
-287 -206 0
-288 -207 0
-391 -205 0
-392 -206 0
-393 -207 0
-439 -205 0
-440 -206 0
-441 -207 0
-211 -208 0
-212 -209 0
-213 -210 0
-397 -208 0
-398 -209 0
-399 -210 0
-445 -211 0
-446 -212 0
-447 -213 0
-271 -214 0
-272 -215 0
-273 -216 0
-229 -217 0
-230 -218 0
-231 -219 0
-265 -217 0
-266 -218 0
-267 -219 0
-436 -217 0
-437 -218 0
-438 -219 0
-250 -220 0
-251 -221 0
-252 -222 0
-433 -220 0
-434 -221 0
-435 -222 0
-301 -223 0
-302 -224 0
-303 -225 0
-403 -223 0
-404 -224 0
-405 -225 0
-253 -226 0
-254 -227 0
-255 -228 0
-322 -226 0
-323 -227 0
-324 -228 0
-253 -229 0
-254 -230 0
-255 -231 0
-322 -232 0
-323 -233 0
-324 -234 0
-370 -232 0
-371 -233 0
-372 -234 0
-385 -232 0
-386 -233 0
-387 -234 0
-283 -235 0
-284 -236 0
-285 -237 0
-355 -235 0
-356 -236 0
-357 -237 0
-367 -235 0
-368 -236 0
-369 -237 0
-409 -235 0
-410 -236 0
-411 -237 0
-250 -238 0
-251 -239 0
-252 -240 0
-391 -238 0
-392 -239 0
-393 -240 0
-304 -241 0
-305 -242 0
-306 -243 0
-370 -241 0
-371 -242 0
-372 -243 0
-433 -241 0
-434 -242 0
-435 -243 0
-253 -247 0
-254 -248 0
-255 -249 0
-358 -247 0
-359 -248 0
-360 -249 0
-313 -250 0
-314 -251 0
-315 -252 0
-364 -250 0
-365 -251 0
-366 -252 0
-271 -256 0
-272 -257 0
-273 -258 0
-334 -256 0
-335 -257 0
-336 -258 0
-394 -256 0
-395 -257 0
-396 -258 0
-442 -256 0
-443 -257 0
-444 -258 0
-361 -262 0
-362 -263 0
-363 -264 0
-388 -262 0
-389 -263 0
-390 -264 0
-331 -265 0
-332 -266 0
-333 -267 0
-379 -265 0
-380 -266 0
-381 -267 0
-436 -265 0
-437 -266 0
-438 -267 0
-337 -268 0
-338 -269 0
-339 -270 0
-442 -268 0
-443 -269 0
-444 -270 0
-394 -271 0
-395 -272 0
-396 -273 0
-367 -274 0
-368 -275 0
-369 -276 0
-439 -274 0
-440 -275 0
-441 -276 0
-283 -277 0
-284 -278 0
-285 -279 0
-301 -277 0
-302 -278 0
-303 -279 0
-307 -277 0
-308 -278 0
-309 -279 0
-373 -280 0
-374 -281 0
-375 -282 0
-400 -280 0
-401 -281 0
-402 -282 0
-409 -280 0
-410 -281 0
-411 -282 0
-292 -283 0
-293 -284 0
-294 -285 0
-325 -283 0
-326 -284 0
-327 -285 0
-385 -286 0
-386 -287 0
-387 -288 0
-445 -286 0
-446 -287 0
-447 -288 0
-310 -289 0
-311 -290 0
-312 -291 0
-331 -289 0
-332 -290 0
-333 -291 0
-409 -289 0
-410 -290 0
-411 -291 0
-427 -295 0
-428 -296 0
-429 -297 0
-442 -295 0
-443 -296 0
-444 -297 0
-334 -301 0
-335 -302 0
-336 -303 0
-448 -301 0
-449 -302 0
-450 -303 0
-340 -307 0
-341 -308 0
-342 -309 0
-364 -307 0
-365 -308 0
-366 -309 0
-427 -307 0
-428 -308 0
-429 -309 0
-394 -310 0
-395 -311 0
-396 -312 0
-403 -310 0
-404 -311 0
-405 -312 0
-346 -313 0
-347 -314 0
-348 -315 0
-385 -313 0
-386 -314 0
-387 -315 0
-343 -316 0
-344 -317 0
-345 -318 0
-409 -316 0
-410 -317 0
-411 -318 0
-424 -319 0
-425 -320 0
-426 -321 0
-325 -322 0
-326 -323 0
-327 -324 0
-391 -325 0
-392 -326 0
-393 -327 0
-415 -325 0
-416 -326 0
-417 -327 0
-361 -328 0
-362 -329 0
-363 -330 0
-337 -334 0
-338 -335 0
-339 -336 0
-358 -334 0
-359 -335 0
-360 -336 0
-391 -334 0
-392 -335 0
-393 -336 0
-343 -337 0
-344 -338 0
-345 -339 0
-352 -340 0
-353 -341 0
-354 -342 0
-355 -340 0
-356 -341 0
-357 -342 0
-355 -346 0
-356 -347 0
-357 -348 0
-439 -346 0
-440 -347 0
-441 -348 0
-367 -349 0
-368 -350 0
-369 -351 0
-376 -352 0
-377 -353 0
-378 -354 0
-412 -358 0
-413 -359 0
-414 -360 0
-448 -358 0
-449 -359 0
-450 -360 0
-376 -361 0
-377 -362 0
-378 -363 0
-421 -364 0
-422 -365 0
-423 -366 0
-406 -370 0
-407 -371 0
-408 -372 0
-415 -370 0
-416 -371 0
-417 -372 0
-379 -373 0
-380 -374 0
-381 -375 0
-448 -373 0
-449 -374 0
-450 -375 0
-403 -376 0
-404 -377 0
-405 -378 0
-430 -376 0
-431 -377 0
-432 -378 0
-412 -406 0
-413 -407 0
-414 -408 0
-433 -415 0
-434 -416 0
-435 -417 0
-442 -415 0
-443 -416 0
-444 -417 0
-448 -436 0
-449 -437 0
-450 -438 0
